decision_x1=[0,4];
decision_x2=[0,4];
decision_x3=[0,4];
decision_x4=[0,4];
decision_x5=[0,4];
decision_x6=[0,4];
decision_x7=[0,4];
decision_x8=[0,4];
random_y1=[0,4];
random_y2=[0,4];
random_y3=[0,4];
random_y4=[0,4];
constraint_x3_x1=[
0,1,5.8|
0,2,1.7|
0,3,7.9|
0,4,2.7|
1,0,1.8|
1,2,5.1|
1,3,4.6|
1,4,1.6|
2,0,2.4|
2,1,5.5|
2,3,2.9|
2,4,3.9|
3,0,7.6|
3,1,5.3|
3,2,5.6|
3,4,2.1|
4,0,1.3|
4,1,1.1|
4,2,5.5|
4,3,1.1|
];
constraint_x4_x1=[
0,1,0.073|
0,2,8.2|
0,3,7.2|
0,4,6|
1,0,9|
1,2,1.4|
1,3,6.8|
1,4,5.2|
2,0,6.3|
2,1,3.3|
2,3,8.9|
2,4,4.1|
3,0,7.3|
3,1,1.2|
3,2,5.1|
3,4,0.76|
4,0,7.2|
4,1,4.3|
4,2,0.2|
4,3,0.54|
];
constraint_x4_x2=[
0,1,4.9|
0,2,1.3|
0,3,3|
0,4,9.4|
1,0,9|
1,2,3.4|
1,3,9.9|
1,4,2.5|
2,0,1.4|
2,1,3.2|
2,3,1.4|
2,4,8.2|
3,0,7.2|
3,1,5.9|
3,2,9.1|
3,4,6.6|
4,0,4.1|
4,1,4.6|
4,2,8.8|
4,3,0.44|
];
constraint_x4_x3=[
0,1,5.5|
0,2,6.2|
0,3,0.33|
0,4,8.4|
1,0,3.7|
1,2,9.7|
1,3,9|
1,4,1|
2,0,5.7|
2,1,6.5|
2,3,6.8|
2,4,6.3|
3,0,5.7|
3,1,7.2|
3,2,7.9|
3,4,5.6|
4,0,10|
4,1,4.7|
4,2,8.1|
4,3,9.5|
];
constraint_x5_x2=[
0,1,8.7|
0,2,6|
0,3,6.8|
0,4,9.7|
1,0,3.3|
1,2,1.6|
1,3,7.6|
1,4,0.25|
2,0,5.5|
2,1,4.3|
2,3,7.8|
2,4,2.2|
3,0,5.4|
3,1,1.5|
3,2,0.65|
3,4,9.2|
4,0,6.8|
4,1,5.7|
4,2,9.8|
4,3,4.6|
];
constraint_x6_x1=[
0,1,3.9|
0,2,5.8|
0,3,4.9|
0,4,2.1|
1,0,1.6|
1,2,6.1|
1,3,5.4|
1,4,8.2|
2,0,4.1|
2,1,9.4|
2,3,8.7|
2,4,3.5|
3,0,8|
3,1,9.3|
3,2,8.3|
3,4,7|
4,0,9.9|
4,1,5.3|
4,2,7.2|
4,3,9.6|
];
constraint_x6_x2=[
0,1,8.7|
0,2,0.98|
0,3,6.7|
0,4,2.8|
1,0,9.4|
1,2,6.7|
1,3,1.1|
1,4,5.2|
2,0,6.9|
2,1,7.1|
2,3,5.4|
2,4,8|
3,0,6.5|
3,1,1.4|
3,2,6|
3,4,5.1|
4,0,9.5|
4,1,7.8|
4,2,5.3|
4,3,7.7|
];
constraint_x6_x3=[
0,1,5.8|
0,2,5.6|
0,3,6.7|
0,4,6.3|
1,0,4.1|
1,2,1.1|
1,3,2.2|
1,4,2.9|
2,0,0.7|
2,1,9.3|
2,3,2.2|
2,4,3.6|
3,0,6.3|
3,1,8.3|
3,2,3.3|
3,4,8.3|
4,0,1.6|
4,1,3.3|
4,2,8.4|
4,3,2.7|
];
constraint_x6_x5=[
0,1,7.9|
0,2,2.5|
0,3,8.5|
0,4,3.1|
1,0,6.1|
1,2,4.4|
1,3,4.2|
1,4,3.3|
2,0,0.65|
2,1,3|
2,3,5.8|
2,4,2.2|
3,0,8|
3,1,3.4|
3,2,0.61|
3,4,1.9|
4,0,1.9|
4,1,2.2|
4,2,8.3|
4,3,7.1|
];
constraint_x7_x1=[
0,1,7.5|
0,2,5.9|
0,3,9.1|
0,4,9|
1,0,2.2|
1,2,3.3|
1,3,8.7|
1,4,7|
2,0,2.9|
2,1,8.9|
2,3,4.2|
2,4,4.3|
3,0,7.6|
3,1,3.8|
3,2,4.9|
3,4,0.7|
4,0,4.4|
4,1,6.5|
4,2,5.6|
4,3,5.7|
];
constraint_x7_x2=[
0,1,3.4|
0,2,2.6|
0,3,7.4|
0,4,2.6|
1,0,9.1|
1,2,7.4|
1,3,9.1|
1,4,2.3|
2,0,9.5|
2,1,9.6|
2,3,6.3|
2,4,0.56|
3,0,1.5|
3,1,0.87|
3,2,3.2|
3,4,6.8|
4,0,1.2|
4,1,9.6|
4,2,8.2|
4,3,8|
];
constraint_x7_x3=[
0,1,1.7|
0,2,6.2|
0,3,6.2|
0,4,2.5|
1,0,4.2|
1,2,7.9|
1,3,3|
1,4,2.8|
2,0,5.3|
2,1,6|
2,3,9.9|
2,4,1.4|
3,0,6.6|
3,1,3.7|
3,2,4.9|
3,4,1.1|
4,0,9.6|
4,1,2.1|
4,2,3.3|
4,3,1.1|
];
constraint_x7_x4=[
0,1,3|
0,2,4.1|
0,3,3.2|
0,4,7|
1,0,4.3|
1,2,5|
1,3,0.99|
1,4,3.8|
2,0,9.3|
2,1,9.2|
2,3,6.3|
2,4,7.6|
3,0,6.9|
3,1,5.6|
3,2,1.5|
3,4,8.5|
4,0,5.1|
4,1,2.2|
4,2,0.013|
4,3,0.16|
];
constraint_x8_x1=[
0,1,5.5|
0,2,1.5|
0,3,8.7|
0,4,3.1|
1,0,5.1|
1,2,6.7|
1,3,0.2|
1,4,4.5|
2,0,0.98|
2,1,6.5|
2,3,0.68|
2,4,3.7|
3,0,2.9|
3,1,0.89|
3,2,9.3|
3,4,0.51|
4,0,5.4|
4,1,4.4|
4,2,5.2|
4,3,4.7|
];
constraint_x1_y1=[
0,0,5|
0,1,1.7|
0,2,4.4|
0,3,0.75|
0,4,7|
1,0,9.7|
1,1,9.3|
1,2,4.1|
1,3,5.5|
1,4,6.6|
2,0,2.8|
2,1,7|
2,2,0.2|
2,3,3.9|
2,4,4.4|
3,0,4.5|
3,1,6|
3,2,9.6|
3,3,4.4|
3,4,5.2|
4,0,1.1|
4,1,1.2|
4,2,1.1|
4,3,7.5|
4,4,6.3|
];
constraint_x2_y2=[
0,0,4.1|
0,1,3.1|
0,2,1.2|
0,3,9.7|
0,4,7|
1,0,5.3|
1,1,8.9|
1,2,1.4|
1,3,6.1|
1,4,7.8|
2,0,6.9|
2,1,3.8|
2,2,0.63|
2,3,8.1|
2,4,3.6|
3,0,7.3|
3,1,5.1|
3,2,7.9|
3,3,0.045|
3,4,8|
4,0,0.56|
4,1,4.9|
4,2,5|
4,3,2.8|
4,4,5.8|
];
constraint_x3_y3=[
0,0,7.1|
0,1,5.3|
0,2,3.6|
0,3,4.6|
0,4,7.6|
1,0,4.6|
1,1,6|
1,2,8.9|
1,3,3.7|
1,4,6.8|
2,0,4|
2,1,7|
2,2,5.9|
2,3,9.9|
2,4,2.1|
3,0,4|
3,1,3.1|
3,2,3.8|
3,3,5.3|
3,4,0.23|
4,0,4.2|
4,1,5.1|
4,2,0.29|
4,3,7.2|
4,4,5.7|
];
constraint_x4_y4=[
0,0,7|
0,1,2.1|
0,2,4.9|
0,3,7.4|
0,4,6.3|
1,0,5.8|
1,1,9.3|
1,2,7|
1,3,5.6|
1,4,0.7|
2,0,3.4|
2,1,3|
2,2,9.3|
2,3,9.7|
2,4,3.1|
3,0,6.6|
3,1,3.2|
3,2,9.1|
3,3,9.5|
3,4,3.8|
4,0,4.9|
4,1,5.2|
4,2,9.8|
4,3,6.4|
4,4,1.1|
];
initial_distribution_y1=[0.31,0.35,0.072,0.0099,0.26];
initial_distribution_y2=[0.2,0.28,0.11,0.26,0.15];
initial_distribution_y3=[0.28,0.063,0.27,0.34,0.05];
initial_distribution_y4=[0.25,0.032,0.29,0.16,0.27];
transition_y1=[
0.11,0.25,0.38,0.24,0.024|
0.16,0.12,0.25,0.21,0.26|
0.26,0.14,0.2,0.16,0.24|
0.21,0.24,0.17,0.27,0.11|
0.16,0.32,0.018,0.42,0.088|
];
transition_y2=[
0.13,0.19,0.26,0.41,0.012|
0.35,0.048,0.14,0.3,0.16|
0.11,0.51,0.027,0.11,0.24|
0.24,0.26,0.21,0.14,0.15|
0.11,0.17,0.33,0.19,0.2|
];
transition_y3=[
0.29,0.2,0.037,0.33,0.15|
0.21,0.19,0.33,0.061,0.2|
0.049,0.32,0.37,0.068,0.2|
0.23,0.24,0.16,0.23,0.14|
0.28,0.25,0.15,0.24,0.087|
];
transition_y4=[
0.29,0.33,0.21,0.11,0.067|
0.13,0.18,0.22,0.19,0.29|
0.017,0.28,0.14,0.13,0.43|
0.3,0.013,0.22,0.32,0.15|
0.18,0.31,0.31,0.15,0.046|
];
